job_count = 24 ;
duration = [|4, 7|8, 5|10, 9|9, 8|5, 6|7, 4|19, 9|12, 7|10, 1|7, 3|8, 7|9, 5|6, 1|15, 6|2, 7|5, 8|14, 9|13, 7|12, 1|4, 9|3, 6|17, 1|2, 4|5, 6|] ;
machine_count = 2 ;
cost = [|18, 24|18, 25|19, 34|16, 26|11, 27|11, 35|14, 26|14, 21|15, 21|10, 25|11, 38|11, 38|13, 28|15, 38|16, 31|16, 32|13, 26|12, 36|16, 25|19, 38|16, 36|12, 20|19, 29|13, 38|] ;
deadline = [60, 60, 60, 60, 60, 60, 60, 60, 60, 60, 60, 60, 60, 60, 60, 60, 60, 60, 60, 60, 60, 60, 60, 60] ;
release = [0, 0, 0, 0, 0, 0, 0, 0, 0, 0, 0, 0, 0, 0, 0, 0, 0, 0, 0, 0, 0, 0, 0, 0] ;
resource = [|4, 4|1, 1|8, 8|6, 6|1, 1|6, 6|1, 1|1, 1|8, 8|6, 6|2, 2|2, 2|5, 5|6, 6|6, 6|6, 6|9, 9|6, 6|1, 1|1, 1|5, 5|4, 4|7, 7|4, 4|] ;
capacities = [10, 10] ;
